Traveling Salesman Problem/TSP_generados/Aleatorio1621104343_19.tsp
NAME: Aleatorio1621104343_19.tsp
COMMENT: Randomly generated scenario
TYPE: TSP
DIMENSION: 19
EDGE_WEIGHT_TYPE: ATT
NODE_COORD_SECTION
1 39.39 47.71
2 21.87 19.03
3 37.94 5.71
4 44.78 0.69
5 28.63 41.58
6 16.46 11.41
7 3.55 6.13
8 8.97 7.89
9 47.05 25.06
10 10.48 7.29
11 15.21 1.88
12 31.03 2.18
13 5.73 48.12
14 16.47 49.65
15 20.32 41.03
16 42.54 33.37
17 33.42 31.06
18 47.91 48.35
19 26.55 18.19
