Traveling Salesman Problem/TSP_generados/Aleatorio1621104343_19.opt.tour
NAME: Aleatorio1621104343_19.opt.tour
COMMENT: Optimal solution for Aleatorio1621104343_19 (216.09835792368582)
TYPE: TOUR
DIMENSION: 19
TOUR_SECTION
1 14 13 15 5 17 19 2 6 10 8 7 11 12 3 4 9 16 18
-1
EOF
